c A SAT instance generated from a 3-CNF formula that had 40 clauses and 10 variables
p cnf 10 40
1 -7 -5 0
3 9 1 0
-3 4 -7 0
-4 6 -2 0
6 8 7 0
-9 -5 10 0
-8 -7 -1 0
-4 -2 -8 0
4 -8 -1 0
8 -3 4 0
-1 -4 10 0
2 -1 -9 0
10 -1 7 0
-7 -1 -10 0
3 5 -10 0
8 7 -1 0
1 10 -6 0
1 2 -8 0
5 -7 1 0
5 -7 -3 0
-9 -2 7 0
5 6 -4 0
-8 -2 -7 0
1 -3 6 0
-5 -6 -2 0
-3 -9 -5 0
-3 1 -2 0
8 4 -5 0
5 -2 -9 0
-9 8 3 0
6 4 10 0
-2 -9 -3 0
-1 9 -7 0
10 5 9 0
9 3 -2 0
-1 4 8 0
-7 -6 3 0
-5 4 2 0
3 9 -1 0
10 5 -9 0
%
0

19 19 87 61 28 38 47 50 92 87
